(set-info :smt-lib-version 2.6)
(set-info :category "crafted")
(set-logic QF_FFA)
(define-sort FF0 () (_ FiniteField 52435875175126190479447740508185965837690552500527637822603658699938581184513))
(declare-fun _90_alt () FF0)
(declare-fun _89_alt () FF0)
(declare-fun _45_alt () FF0)
(declare-fun _88_alt () FF0)
(declare-fun _49_alt () FF0)
(declare-fun _87_alt () FF0)
(declare-fun _75_alt () FF0)
(declare-fun _85_alt () FF0)
(declare-fun _84_alt () FF0)
(declare-fun _79_alt () FF0)
(declare-fun _32_alt () FF0)
(declare-fun _54_alt () FF0)
(declare-fun _7_alt () FF0)
(declare-fun _55_alt () FF0)
(declare-fun _78_alt () FF0)
(declare-fun _39_alt () FF0)
(declare-fun _77_alt () FF0)
(declare-fun _76_alt () FF0)
(declare-fun _44_alt () FF0)
(declare-fun _10_alt () FF0)
(declare-fun _34_alt () FF0)
(declare-fun _74_alt () FF0)
(declare-fun _57_alt () FF0)
(declare-fun _73_alt () FF0)
(declare-fun _59_alt () FF0)
(declare-fun _72_alt () FF0)
(declare-fun _23_alt () FF0)
(declare-fun _71_alt () FF0)
(declare-fun _61_alt () FF0)
(declare-fun _70_alt () FF0)
(declare-fun _67_alt () FF0)
(declare-fun _66_alt () FF0)
(declare-fun _69_alt () FF0)
(declare-fun _26_alt () FF0)
(declare-fun _42_alt () FF0)
(declare-fun _6_alt () FF0)
(declare-fun _1_alt () FF0)
(declare-fun _8_alt () FF0)
(declare-fun _27_alt () FF0)
(declare-fun _53_alt () FF0)
(declare-fun _2_alt () FF0)
(declare-fun _52_alt () FF0)
(declare-fun _51_alt () FF0)
(declare-fun _36_alt () FF0)
(declare-fun _21_alt () FF0)
(declare-fun _20_alt () FF0)
(declare-fun _48_alt () FF0)
(declare-fun _47_alt () FF0)
(declare-fun _5_alt () FF0)
(declare-fun _0_alt () FF0)
(declare-fun _16_alt () FF0)
(declare-fun _40_alt () FF0)
(declare-fun _38_alt () FF0)
(declare-fun _31_alt () FF0)
(declare-fun _3_alt () FF0)
(declare-fun _30_alt () FF0)
(declare-fun _4_alt () FF0)
(declare-fun _9_alt () FF0)
(declare-fun _11_alt () FF0)
(declare-fun _15_alt () FF0)
(declare-fun _14_alt () FF0)
(declare-fun _13_alt () FF0)
(declare-fun _12_alt () FF0)
(declare-fun _90 () FF0)
(declare-fun _89 () FF0)
(declare-fun _45 () FF0)
(declare-fun _88 () FF0)
(declare-fun _49 () FF0)
(declare-fun _87 () FF0)
(declare-fun _75 () FF0)
(declare-fun _85 () FF0)
(declare-fun _84 () FF0)
(declare-fun _79 () FF0)
(declare-fun _32 () FF0)
(declare-fun _54 () FF0)
(declare-fun _7 () FF0)
(declare-fun _55 () FF0)
(declare-fun _78 () FF0)
(declare-fun _39 () FF0)
(declare-fun _77 () FF0)
(declare-fun _76 () FF0)
(declare-fun _44 () FF0)
(declare-fun _10 () FF0)
(declare-fun _34 () FF0)
(declare-fun _74 () FF0)
(declare-fun _57 () FF0)
(declare-fun _73 () FF0)
(declare-fun _59 () FF0)
(declare-fun _72 () FF0)
(declare-fun _23 () FF0)
(declare-fun _71 () FF0)
(declare-fun _61 () FF0)
(declare-fun _70 () FF0)
(declare-fun _67 () FF0)
(declare-fun _66 () FF0)
(declare-fun _69 () FF0)
(declare-fun _26 () FF0)
(declare-fun _42 () FF0)
(declare-fun _6 () FF0)
(declare-fun _1 () FF0)
(declare-fun _8 () FF0)
(declare-fun _27 () FF0)
(declare-fun _53 () FF0)
(declare-fun _2 () FF0)
(declare-fun _52 () FF0)
(declare-fun _51 () FF0)
(declare-fun _36 () FF0)
(declare-fun _21 () FF0)
(declare-fun _20 () FF0)
(declare-fun _48 () FF0)
(declare-fun _47 () FF0)
(declare-fun _5 () FF0)
(declare-fun _0 () FF0)
(declare-fun _16 () FF0)
(declare-fun _40 () FF0)
(declare-fun _38 () FF0)
(declare-fun _31 () FF0)
(declare-fun _3 () FF0)
(declare-fun _30 () FF0)
(declare-fun _4 () FF0)
(declare-fun _9 () FF0)
(declare-fun _11 () FF0)
(declare-fun _15 () FF0)
(declare-fun _14 () FF0)
(declare-fun _13 () FF0)
(declare-fun _12 () FF0)
(declare-fun out_alt () FF0)
(declare-fun out () FF0)
(assert 
  (let ((let0 (as ff52435875175126190479447740508185965837690552500527637822603658699938581184512 FF0)))
  (let ((let1 _90_alt))
  (let ((let2 (ff.mul let1 let0)))
  (let ((let3 _89_alt))
  (let ((let4 _45_alt))
  (let ((let5 (ff.add let4 let3 let2)))
  (let ((let6 (ff.mul let3 let4)))
  (let ((let7 (= let6 let5)))
  (let ((let8 (ff.mul let3 let0)))
  (let ((let9 _88_alt))
  (let ((let10 _49_alt))
  (let ((let11 (ff.add let10 let9 let8)))
  (let ((let12 (ff.mul let9 let10)))
  (let ((let13 (= let12 let11)))
  (let ((let14 (ff.mul let9 let0)))
  (let ((let15 _87_alt))
  (let ((let16 _75_alt))
  (let ((let17 (ff.add let16 let15 let14)))
  (let ((let18 (ff.mul let15 let16)))
  (let ((let19 (= let18 let17)))
  (let ((let20 (ff.mul let15 let0)))
  (let ((let21 _85_alt))
  (let ((let22 _84_alt))
  (let ((let23 _79_alt))
  (let ((let24 (ff.add let23 let22 let21 let20)))
  (let ((let25 (ff.add let22 let21)))
  (let ((let26 (ff.mul let25 let23)))
  (let ((let27 (= let26 let24)))
  (let ((let28 _32_alt))
  (let ((let29 _54_alt))
  (let ((let30 (ff.mul let29 let28)))
  (let ((let31 (= let30 let21)))
  (let ((let32 (as ff1 FF0)))
  (let ((let33 _7_alt))
  (let ((let34 (ff.mul let33 let0)))
  (let ((let35 (ff.add let34 let32)))
  (let ((let36 (ff.mul let29 let0)))
  (let ((let37 (ff.add let36 let32)))
  (let ((let38 (ff.mul let37 let35)))
  (let ((let39 (= let38 let22)))
  (let ((let40 _55_alt))
  (let ((let41 _78_alt))
  (let ((let42 (ff.mul let41 let40)))
  (let ((let43 (= let42 let23)))
  (let ((let44 _39_alt))
  (let ((let45 _77_alt))
  (let ((let46 (ff.mul let45 let44)))
  (let ((let47 (= let46 let41)))
  (let ((let48 _76_alt))
  (let ((let49 (ff.mul let48 let33)))
  (let ((let50 (= let49 let45)))
  (let ((let51 _44_alt))
  (let ((let52 _10_alt))
  (let ((let53 (ff.mul let52 let51)))
  (let ((let54 (= let53 let48)))
  (let ((let55 _34_alt))
  (let ((let56 (ff.mul let55 let0)))
  (let ((let57 (ff.add let56 let32)))
  (let ((let58 _74_alt))
  (let ((let59 (ff.mul let58 let57)))
  (let ((let60 (= let59 let16)))
  (let ((let61 _57_alt))
  (let ((let62 (ff.mul let61 let0)))
  (let ((let63 (ff.add let62 let32)))
  (let ((let64 _73_alt))
  (let ((let65 (ff.mul let64 let63)))
  (let ((let66 (= let65 let58)))
  (let ((let67 _59_alt))
  (let ((let68 (ff.mul let67 let0)))
  (let ((let69 (ff.add let68 let32)))
  (let ((let70 _72_alt))
  (let ((let71 (ff.mul let70 let69)))
  (let ((let72 (= let71 let64)))
  (let ((let73 _23_alt))
  (let ((let74 _71_alt))
  (let ((let75 (ff.mul let74 let73)))
  (let ((let76 (= let75 let70)))
  (let ((let77 _61_alt))
  (let ((let78 (ff.mul let77 let0)))
  (let ((let79 (ff.add let78 let32)))
  (let ((let80 _70_alt))
  (let ((let81 (ff.mul let80 let79)))
  (let ((let82 (= let81 let74)))
  (let ((let83 _67_alt))
  (let ((let84 _66_alt))
  (let ((let85 (ff.add let84 let83)))
  (let ((let86 _69_alt))
  (let ((let87 (ff.mul let86 let85)))
  (let ((let88 (= let87 let80)))
  (let ((let89 _26_alt))
  (let ((let90 (ff.mul let89 let0)))
  (let ((let91 (ff.add let90 let32)))
  (let ((let92 (ff.mul let91 let28)))
  (let ((let93 (= let92 let86)))
  (let ((let94 _42_alt))
  (let ((let95 (ff.mul let94 let0)))
  (let ((let96 (ff.add let95 let32)))
  (let ((let97 _6_alt))
  (let ((let98 (ff.mul let97 let0)))
  (let ((let99 (ff.add let98 let32)))
  (let ((let100 (ff.mul let99 let96)))
  (let ((let101 (= let100 let83)))
  (let ((let102 (ff.mul let97 let57)))
  (let ((let103 (= let102 let84)))
  (let ((let104 _1_alt))
  (let ((let105 (ff.add let104 let34)))
  (let ((let106 (ff.mul let105 let105)))
  (let ((let107 (= let106 let77)))
  (let ((let108 (ff.mul let73 let0)))
  (let ((let109 (ff.add let108 let61)))
  (let ((let110 (ff.mul let109 let109)))
  (let ((let111 (= let110 let67)))
  (let ((let112 (ff.mul let40 let0)))
  (let ((let113 _8_alt))
  (let ((let114 (ff.mul let113 let0)))
  (let ((let115 (ff.add let114 let112 let32)))
  (let ((let116 (ff.mul let115 let115)))
  (let ((let117 (= let116 let61)))
  (let ((let118 _27_alt))
  (let ((let119 (ff.mul let118 let0)))
  (let ((let120 (ff.add let119 let29 let112 let32)))
  (let ((let121 (ff.add let119 let32)))
  (let ((let122 (ff.mul let121 let29)))
  (let ((let123 (= let122 let120)))
  (let ((let124 _53_alt))
  (let ((let125 _2_alt))
  (let ((let126 (ff.add let125 let124 let36)))
  (let ((let127 (ff.mul let124 let125)))
  (let ((let128 (= let127 let126)))
  (let ((let129 (ff.mul let124 let0)))
  (let ((let130 _52_alt))
  (let ((let131 (ff.add let34 let130 let129 let32)))
  (let ((let132 (ff.mul let130 let35)))
  (let ((let133 (= let132 let131)))
  (let ((let134 (ff.mul let130 let0)))
  (let ((let135 _51_alt))
  (let ((let136 _36_alt))
  (let ((let137 (ff.mul let136 let0)))
  (let ((let138 (ff.add let137 let135 let134 let32)))
  (let ((let139 (ff.add let137 let32)))
  (let ((let140 (ff.mul let135 let139)))
  (let ((let141 (= let140 let138)))
  (let ((let142 (ff.mul let135 let0)))
  (let ((let143 _21_alt))
  (let ((let144 _20_alt))
  (let ((let145 (ff.mul let104 let0)))
  (let ((let146 (ff.add let145 let144 let143 let142 let32)))
  (let ((let147 (ff.add let145 let32)))
  (let ((let148 (ff.add let144 let143)))
  (let ((let149 (ff.mul let148 let147)))
  (let ((let150 (= let149 let146)))
  (let ((let151 (ff.mul let10 let0)))
  (let ((let152 _48_alt))
  (let ((let153 (ff.add let52 let152 let151)))
  (let ((let154 (ff.mul let152 let52)))
  (let ((let155 (= let154 let153)))
  (let ((let156 (ff.mul let152 let0)))
  (let ((let157 _47_alt))
  (let ((let158 _5_alt))
  (let ((let159 (ff.add let158 let157 let156)))
  (let ((let160 (ff.mul let157 let158)))
  (let ((let161 (= let160 let159)))
  (let ((let162 (ff.mul let157 let0)))
  (let ((let163 _0_alt))
  (let ((let164 (ff.add let163 let90 let162 let32)))
  (let ((let165 (ff.mul let163 let91)))
  (let ((let166 (= let165 let164)))
  (let ((let167 (ff.mul let4 let0)))
  (let ((let168 (ff.mul let51 let0)))
  (let ((let169 (ff.add let89 let168 let167 let32)))
  (let ((let170 (ff.add let168 let32)))
  (let ((let171 (ff.mul let170 let89)))
  (let ((let172 (= let171 let169)))
  (let ((let173 _16_alt))
  (let ((let174 (ff.mul let173 let96)))
  (let ((let175 (= let174 let51)))
  (let ((let176 _40_alt))
  (let ((let177 (ff.mul let176 let0)))
  (let ((let178 (ff.add let118 let177)))
  (let ((let179 (ff.mul let178 let178)))
  (let ((let180 (= let179 let94)))
  (let ((let181 (ff.mul let163 let0)))
  (let ((let182 (ff.add let181 let44)))
  (let ((let183 (ff.mul let182 let182)))
  (let ((let184 (= let183 let176)))
  (let ((let185 (ff.mul let44 let0)))
  (let ((let186 _38_alt))
  (let ((let187 (ff.add let28 let186 let185)))
  (let ((let188 (ff.mul let186 let28)))
  (let ((let189 (= let188 let187)))
  (let ((let190 (as ff2 FF0)))
  (let ((let191 (ff.mul let186 let0)))
  (let ((let192 (ff.add let34 let137 let191 let190)))
  (let ((let193 (ff.mul let139 let35)))
  (let ((let194 (= let193 let192)))
  (let ((let195 (ff.add let104 let55 let0)))
  (let ((let196 (ff.mul let195 let195)))
  (let ((let197 (= let196 let136)))
  (let ((let198 (ff.mul let158 let0)))
  (let ((let199 (ff.add let163 let198)))
  (let ((let200 (ff.mul let199 let199)))
  (let ((let201 (= let200 let55)))
  (let ((let202 (ff.mul let28 let0)))
  (let ((let203 _31_alt))
  (let ((let204 _3_alt))
  (let ((let205 (ff.add let204 let203 let202)))
  (let ((let206 (ff.mul let203 let204)))
  (let ((let207 (= let206 let205)))
  (let ((let208 (ff.mul let203 let0)))
  (let ((let209 _30_alt))
  (let ((let210 (ff.add let118 let209 let208)))
  (let ((let211 (ff.mul let209 let118)))
  (let ((let212 (= let211 let210)))
  (let ((let213 (ff.mul let209 let0)))
  (let ((let214 (ff.add let97 let52 let213)))
  (let ((let215 (ff.mul let52 let97)))
  (let ((let216 (= let215 let214)))
  (let ((let217 _4_alt))
  (let ((let218 (ff.mul let204 let0)))
  (let ((let219 (ff.add let218 let217)))
  (let ((let220 (ff.mul let219 let219)))
  (let ((let221 (= let220 let118)))
  (let ((let222 (ff.add let104 let108 let90 let32)))
  (let ((let223 (ff.add let108 let32)))
  (let ((let224 (ff.mul let223 let104)))
  (let ((let225 (= let224 let222)))
  (let ((let226 (ff.add let114 let144 let143)))
  (let ((let227 (ff.mul let226 let226)))
  (let ((let228 (= let227 let73)))
  (let ((let229 _9_alt))
  (let ((let230 (ff.mul let173 let0)))
  (let ((let231 (ff.add let230 let32)))
  (let ((let232 (ff.mul let231 let229)))
  (let ((let233 (= let232 let143)))
  (let ((let234 _11_alt))
  (let ((let235 (ff.mul let173 let234)))
  (let ((let236 (= let235 let144)))
  (let ((let237 _15_alt))
  (let ((let238 (ff.add let97 let237 let230)))
  (let ((let239 (ff.mul let237 let97)))
  (let ((let240 (= let239 let238)))
  (let ((let241 (ff.mul let237 let0)))
  (let ((let242 _14_alt))
  (let ((let243 (ff.add let125 let242 let241)))
  (let ((let244 (ff.mul let242 let125)))
  (let ((let245 (= let244 let243)))
  (let ((let246 (ff.mul let242 let0)))
  (let ((let247 _13_alt))
  (let ((let248 (ff.add let234 let247 let246)))
  (let ((let249 (ff.mul let247 let234)))
  (let ((let250 (= let249 let248)))
  (let ((let251 (ff.mul let247 let0)))
  (let ((let252 _12_alt))
  (let ((let253 (ff.add let217 let252 let251)))
  (let ((let254 (ff.mul let252 let217)))
  (let ((let255 (= let254 let253)))
  (let ((let256 (ff.mul let252 let0)))
  (let ((let257 (ff.add let113 let229 let256)))
  (let ((let258 (ff.mul let229 let113)))
  (let ((let259 (= let258 let257)))
  (let ((let260 (ff.mul let234 let234)))
  (let ((let261 (= let260 let234)))
  (let ((let262 (ff.mul let52 let52)))
  (let ((let263 (= let262 let52)))
  (let ((let264 (ff.mul let229 let229)))
  (let ((let265 (= let264 let229)))
  (let ((let266 (ff.mul let113 let113)))
  (let ((let267 (= let266 let113)))
  (let ((let268 (ff.mul let33 let33)))
  (let ((let269 (= let268 let33)))
  (let ((let270 (ff.mul let97 let97)))
  (let ((let271 (= let270 let97)))
  (let ((let272 (ff.mul let158 let158)))
  (let ((let273 (= let272 let158)))
  (let ((let274 (ff.mul let217 let217)))
  (let ((let275 (= let274 let217)))
  (let ((let276 (ff.mul let204 let204)))
  (let ((let277 (= let276 let204)))
  (let ((let278 (ff.mul let125 let125)))
  (let ((let279 (= let278 let125)))
  (let ((let280 (ff.mul let104 let104)))
  (let ((let281 (= let280 let104)))
  (let ((let282 (ff.mul let163 let163)))
  (let ((let283 (= let282 let163)))
  (let ((let284 (and let283 let281 let279 let277 let275 let273 let271 let269 let267 let265 let263 let261 let259 let255 let250 let245 let240 let236 let233 let228 let225 let221 let216 let212 let207 let201 let197 let194 let189 let184 let180 let175 let172 let166 let161 let155 let150 let141 let133 let128 let123 let117 let111 let107 let103 let101 let93 let88 let82 let76 let72 let66 let60 let54 let50 let47 let43 let39 let31 let27 let19 let13 let7)))
  (let ((let285 _90))
  (let ((let286 (ff.mul let285 let0)))
  (let ((let287 _89))
  (let ((let288 _45))
  (let ((let289 (ff.add let288 let287 let286)))
  (let ((let290 (ff.mul let287 let288)))
  (let ((let291 (= let290 let289)))
  (let ((let292 (ff.mul let287 let0)))
  (let ((let293 _88))
  (let ((let294 _49))
  (let ((let295 (ff.add let294 let293 let292)))
  (let ((let296 (ff.mul let293 let294)))
  (let ((let297 (= let296 let295)))
  (let ((let298 (ff.mul let293 let0)))
  (let ((let299 _87))
  (let ((let300 _75))
  (let ((let301 (ff.add let300 let299 let298)))
  (let ((let302 (ff.mul let299 let300)))
  (let ((let303 (= let302 let301)))
  (let ((let304 (ff.mul let299 let0)))
  (let ((let305 _85))
  (let ((let306 _84))
  (let ((let307 _79))
  (let ((let308 (ff.add let307 let306 let305 let304)))
  (let ((let309 (ff.add let306 let305)))
  (let ((let310 (ff.mul let309 let307)))
  (let ((let311 (= let310 let308)))
  (let ((let312 _32))
  (let ((let313 _54))
  (let ((let314 (ff.mul let313 let312)))
  (let ((let315 (= let314 let305)))
  (let ((let316 _7))
  (let ((let317 (ff.mul let316 let0)))
  (let ((let318 (ff.add let317 let32)))
  (let ((let319 (ff.mul let313 let0)))
  (let ((let320 (ff.add let319 let32)))
  (let ((let321 (ff.mul let320 let318)))
  (let ((let322 (= let321 let306)))
  (let ((let323 _55))
  (let ((let324 _78))
  (let ((let325 (ff.mul let324 let323)))
  (let ((let326 (= let325 let307)))
  (let ((let327 _39))
  (let ((let328 _77))
  (let ((let329 (ff.mul let328 let327)))
  (let ((let330 (= let329 let324)))
  (let ((let331 _76))
  (let ((let332 (ff.mul let331 let316)))
  (let ((let333 (= let332 let328)))
  (let ((let334 _44))
  (let ((let335 _10))
  (let ((let336 (ff.mul let335 let334)))
  (let ((let337 (= let336 let331)))
  (let ((let338 _34))
  (let ((let339 (ff.mul let338 let0)))
  (let ((let340 (ff.add let339 let32)))
  (let ((let341 _74))
  (let ((let342 (ff.mul let341 let340)))
  (let ((let343 (= let342 let300)))
  (let ((let344 _57))
  (let ((let345 (ff.mul let344 let0)))
  (let ((let346 (ff.add let345 let32)))
  (let ((let347 _73))
  (let ((let348 (ff.mul let347 let346)))
  (let ((let349 (= let348 let341)))
  (let ((let350 _59))
  (let ((let351 (ff.mul let350 let0)))
  (let ((let352 (ff.add let351 let32)))
  (let ((let353 _72))
  (let ((let354 (ff.mul let353 let352)))
  (let ((let355 (= let354 let347)))
  (let ((let356 _23))
  (let ((let357 _71))
  (let ((let358 (ff.mul let357 let356)))
  (let ((let359 (= let358 let353)))
  (let ((let360 _61))
  (let ((let361 (ff.mul let360 let0)))
  (let ((let362 (ff.add let361 let32)))
  (let ((let363 _70))
  (let ((let364 (ff.mul let363 let362)))
  (let ((let365 (= let364 let357)))
  (let ((let366 _67))
  (let ((let367 _66))
  (let ((let368 (ff.add let367 let366)))
  (let ((let369 _69))
  (let ((let370 (ff.mul let369 let368)))
  (let ((let371 (= let370 let363)))
  (let ((let372 _26))
  (let ((let373 (ff.mul let372 let0)))
  (let ((let374 (ff.add let373 let32)))
  (let ((let375 (ff.mul let374 let312)))
  (let ((let376 (= let375 let369)))
  (let ((let377 _42))
  (let ((let378 (ff.mul let377 let0)))
  (let ((let379 (ff.add let378 let32)))
  (let ((let380 _6))
  (let ((let381 (ff.mul let380 let0)))
  (let ((let382 (ff.add let381 let32)))
  (let ((let383 (ff.mul let382 let379)))
  (let ((let384 (= let383 let366)))
  (let ((let385 (ff.mul let380 let340)))
  (let ((let386 (= let385 let367)))
  (let ((let387 _1))
  (let ((let388 (ff.add let387 let317)))
  (let ((let389 (ff.mul let388 let388)))
  (let ((let390 (= let389 let360)))
  (let ((let391 (ff.mul let356 let0)))
  (let ((let392 (ff.add let391 let344)))
  (let ((let393 (ff.mul let392 let392)))
  (let ((let394 (= let393 let350)))
  (let ((let395 (ff.mul let323 let0)))
  (let ((let396 _8))
  (let ((let397 (ff.mul let396 let0)))
  (let ((let398 (ff.add let397 let395 let32)))
  (let ((let399 (ff.mul let398 let398)))
  (let ((let400 (= let399 let344)))
  (let ((let401 _27))
  (let ((let402 (ff.mul let401 let0)))
  (let ((let403 (ff.add let402 let313 let395 let32)))
  (let ((let404 (ff.add let402 let32)))
  (let ((let405 (ff.mul let404 let313)))
  (let ((let406 (= let405 let403)))
  (let ((let407 _53))
  (let ((let408 _2))
  (let ((let409 (ff.add let408 let407 let319)))
  (let ((let410 (ff.mul let407 let408)))
  (let ((let411 (= let410 let409)))
  (let ((let412 (ff.mul let407 let0)))
  (let ((let413 _52))
  (let ((let414 (ff.add let317 let413 let412 let32)))
  (let ((let415 (ff.mul let413 let318)))
  (let ((let416 (= let415 let414)))
  (let ((let417 (ff.mul let413 let0)))
  (let ((let418 _51))
  (let ((let419 _36))
  (let ((let420 (ff.mul let419 let0)))
  (let ((let421 (ff.add let420 let418 let417 let32)))
  (let ((let422 (ff.add let420 let32)))
  (let ((let423 (ff.mul let418 let422)))
  (let ((let424 (= let423 let421)))
  (let ((let425 (ff.mul let418 let0)))
  (let ((let426 _21))
  (let ((let427 _20))
  (let ((let428 (ff.mul let387 let0)))
  (let ((let429 (ff.add let428 let427 let426 let425 let32)))
  (let ((let430 (ff.add let428 let32)))
  (let ((let431 (ff.add let427 let426)))
  (let ((let432 (ff.mul let431 let430)))
  (let ((let433 (= let432 let429)))
  (let ((let434 (ff.mul let294 let0)))
  (let ((let435 _48))
  (let ((let436 (ff.add let335 let435 let434)))
  (let ((let437 (ff.mul let435 let335)))
  (let ((let438 (= let437 let436)))
  (let ((let439 (ff.mul let435 let0)))
  (let ((let440 _47))
  (let ((let441 _5))
  (let ((let442 (ff.add let441 let440 let439)))
  (let ((let443 (ff.mul let440 let441)))
  (let ((let444 (= let443 let442)))
  (let ((let445 (ff.mul let440 let0)))
  (let ((let446 _0))
  (let ((let447 (ff.add let446 let373 let445 let32)))
  (let ((let448 (ff.mul let446 let374)))
  (let ((let449 (= let448 let447)))
  (let ((let450 (ff.mul let288 let0)))
  (let ((let451 (ff.mul let334 let0)))
  (let ((let452 (ff.add let372 let451 let450 let32)))
  (let ((let453 (ff.add let451 let32)))
  (let ((let454 (ff.mul let453 let372)))
  (let ((let455 (= let454 let452)))
  (let ((let456 _16))
  (let ((let457 (ff.mul let456 let379)))
  (let ((let458 (= let457 let334)))
  (let ((let459 _40))
  (let ((let460 (ff.mul let459 let0)))
  (let ((let461 (ff.add let401 let460)))
  (let ((let462 (ff.mul let461 let461)))
  (let ((let463 (= let462 let377)))
  (let ((let464 (ff.mul let446 let0)))
  (let ((let465 (ff.add let464 let327)))
  (let ((let466 (ff.mul let465 let465)))
  (let ((let467 (= let466 let459)))
  (let ((let468 (ff.mul let327 let0)))
  (let ((let469 _38))
  (let ((let470 (ff.add let312 let469 let468)))
  (let ((let471 (ff.mul let469 let312)))
  (let ((let472 (= let471 let470)))
  (let ((let473 (ff.mul let469 let0)))
  (let ((let474 (ff.add let317 let420 let473 let190)))
  (let ((let475 (ff.mul let422 let318)))
  (let ((let476 (= let475 let474)))
  (let ((let477 (ff.add let387 let338 let0)))
  (let ((let478 (ff.mul let477 let477)))
  (let ((let479 (= let478 let419)))
  (let ((let480 (ff.mul let441 let0)))
  (let ((let481 (ff.add let446 let480)))
  (let ((let482 (ff.mul let481 let481)))
  (let ((let483 (= let482 let338)))
  (let ((let484 (ff.mul let312 let0)))
  (let ((let485 _31))
  (let ((let486 _3))
  (let ((let487 (ff.add let486 let485 let484)))
  (let ((let488 (ff.mul let485 let486)))
  (let ((let489 (= let488 let487)))
  (let ((let490 (ff.mul let485 let0)))
  (let ((let491 _30))
  (let ((let492 (ff.add let401 let491 let490)))
  (let ((let493 (ff.mul let491 let401)))
  (let ((let494 (= let493 let492)))
  (let ((let495 (ff.mul let491 let0)))
  (let ((let496 (ff.add let380 let335 let495)))
  (let ((let497 (ff.mul let335 let380)))
  (let ((let498 (= let497 let496)))
  (let ((let499 _4))
  (let ((let500 (ff.mul let486 let0)))
  (let ((let501 (ff.add let500 let499)))
  (let ((let502 (ff.mul let501 let501)))
  (let ((let503 (= let502 let401)))
  (let ((let504 (ff.add let387 let391 let373 let32)))
  (let ((let505 (ff.add let391 let32)))
  (let ((let506 (ff.mul let505 let387)))
  (let ((let507 (= let506 let504)))
  (let ((let508 (ff.add let397 let427 let426)))
  (let ((let509 (ff.mul let508 let508)))
  (let ((let510 (= let509 let356)))
  (let ((let511 _9))
  (let ((let512 (ff.mul let456 let0)))
  (let ((let513 (ff.add let512 let32)))
  (let ((let514 (ff.mul let513 let511)))
  (let ((let515 (= let514 let426)))
  (let ((let516 _11))
  (let ((let517 (ff.mul let456 let516)))
  (let ((let518 (= let517 let427)))
  (let ((let519 _15))
  (let ((let520 (ff.add let380 let519 let512)))
  (let ((let521 (ff.mul let519 let380)))
  (let ((let522 (= let521 let520)))
  (let ((let523 (ff.mul let519 let0)))
  (let ((let524 _14))
  (let ((let525 (ff.add let408 let524 let523)))
  (let ((let526 (ff.mul let524 let408)))
  (let ((let527 (= let526 let525)))
  (let ((let528 (ff.mul let524 let0)))
  (let ((let529 _13))
  (let ((let530 (ff.add let516 let529 let528)))
  (let ((let531 (ff.mul let529 let516)))
  (let ((let532 (= let531 let530)))
  (let ((let533 (ff.mul let529 let0)))
  (let ((let534 _12))
  (let ((let535 (ff.add let499 let534 let533)))
  (let ((let536 (ff.mul let534 let499)))
  (let ((let537 (= let536 let535)))
  (let ((let538 (ff.mul let534 let0)))
  (let ((let539 (ff.add let396 let511 let538)))
  (let ((let540 (ff.mul let511 let396)))
  (let ((let541 (= let540 let539)))
  (let ((let542 (ff.mul let516 let516)))
  (let ((let543 (= let542 let516)))
  (let ((let544 (ff.mul let335 let335)))
  (let ((let545 (= let544 let335)))
  (let ((let546 (ff.mul let511 let511)))
  (let ((let547 (= let546 let511)))
  (let ((let548 (ff.mul let396 let396)))
  (let ((let549 (= let548 let396)))
  (let ((let550 (ff.mul let316 let316)))
  (let ((let551 (= let550 let316)))
  (let ((let552 (ff.mul let380 let380)))
  (let ((let553 (= let552 let380)))
  (let ((let554 (ff.mul let441 let441)))
  (let ((let555 (= let554 let441)))
  (let ((let556 (ff.mul let499 let499)))
  (let ((let557 (= let556 let499)))
  (let ((let558 (ff.mul let486 let486)))
  (let ((let559 (= let558 let486)))
  (let ((let560 (ff.mul let408 let408)))
  (let ((let561 (= let560 let408)))
  (let ((let562 (ff.mul let387 let387)))
  (let ((let563 (= let562 let387)))
  (let ((let564 (ff.mul let446 let446)))
  (let ((let565 (= let564 let446)))
  (let ((let566 (and let565 let563 let561 let559 let557 let555 let553 let551 let549 let547 let545 let543 let541 let537 let532 let527 let522 let518 let515 let510 let507 let503 let498 let494 let489 let483 let479 let476 let472 let467 let463 let458 let455 let449 let444 let438 let433 let424 let416 let411 let406 let400 let394 let390 let386 let384 let376 let371 let365 let359 let355 let349 let343 let337 let333 let330 let326 let322 let315 let311 let303 let297 let291)))
  (let ((let567 out_alt))
  (let ((let568 out))
  (let ((let569 (= let568 let567)))
  (let ((let570 (not let569)))
  (let ((let571 (= let335 let52)))
  (let ((let572 (= let387 let104)))
  (let ((let573 (= let446 let163)))
  (let ((let574 (= let486 let204)))
  (let ((let575 (= let499 let217)))
  (let ((let576 (= let441 let158)))
  (let ((let577 (= let408 let125)))
  (let ((let578 (= let511 let229)))
  (let ((let579 (= let316 let33)))
  (let ((let580 (= let396 let113)))
  (let ((let581 (= let380 let97)))
  (let ((let582 (= let516 let234)))
  (let ((let583 (and let582 let581 let580 let579 let578 let577 let576 let575 let574 let573 let572 let571)))
  (let ((let584 (and let583 let570 let566 let284)))
  let584
)))))))))))))))))))))))))))))))))))))))))))))))))))))))))))))))))))))))))))))))))))))))))))))))))))))))))))))))))))))))))))))))))))))))))))))))))))))))))))))))))))))))))))))))))))))))))))))))))))))))))))))))))))))))))))))))))))))))))))))))))))))))))))))))))))))))))))))))))))))))))))))))))))))))))))))))))))))))))))))))))))))))))))))))))))))))))))))))))))))))))))))))))))))))))))))))))))))))))))))))))))))))))))))))))))))))))))))))))))))))))))))))))))))))))))))))))))))))))))))))))))))))))))))))))))))))))))))))))))))))))))))))))))))))))))))))))))))))))))))))))))))))))))))))))))))))))
)
(check-sat)
